NAME: instances/5_5.tsp
TYPE: TSP
COMMENT: 5-Staedte in Burma (Zaw Win)
DIMENSION: 5
EDGE_WEIGHT_TYPE: GEO
EDGE_WEIGHT_FORMAT: FUNCTION
DISPLAY_DATA_TYPE: COORD_DISPLAY
NODE_COORD_SECTION
1 22.17 -7.14
2 4.51 26.98
3 0.66 6.54
4 -24.54 24.89
5 -21.46 13.01
EOF
